
Gurobi 7.5.2 (linux64) logging started Sat Jun 23 16:25:59 2018

Changed value of parameter LogFile to result/ilp/simNo_1-n_100-m_40-s_4-minVAF_0.05-cov_2000-k_2-fn_0.15-fp_0.0001-na_0.15.ILP.gurobiSolverLog
   Prev: gurobi.log  Default: 
Changed value of parameter TimeLimit to 86400.0
   Prev: 1e+100  Min: 0.0  Max: 1e+100  Default: 1e+100
Optimize a model with 1265601 rows, 330440 columns and 3489120 nonzeros
Variable types: 0 continuous, 330440 integer (330440 binary)
Coefficient statistics:
  Matrix range     [2e-03, 3e+00]
  Objective range  [1e+00, 1e+01]
  Bounds range     [1e+00, 1e+00]
  RHS range        [2e-01, 2e+00]
Found heuristic solution: objective -17061.74213
Presolve removed 329283 rows and 213145 columns (presolve time = 5s) ...
Presolve removed 329793 rows and 213145 columns (presolve time = 10s) ...
Presolve removed 329793 rows and 213145 columns (presolve time = 15s) ...
Presolve removed 329793 rows and 213145 columns (presolve time = 21s) ...
Presolve removed 329793 rows and 213145 columns (presolve time = 25s) ...
Presolve removed 329793 rows and 213145 columns (presolve time = 32s) ...
Presolve removed 329793 rows and 213145 columns
Presolve time: 33.47s
Presolved: 935808 rows, 117295 columns, 2593200 nonzeros
Variable types: 0 continuous, 117295 integer (117295 binary)
Presolved: 117295 rows, 1053103 columns, 2710495 nonzeros

Presolve removed 117295 rows and 1053103 columns

Root simplex log...

Iteration    Objective       Primal Inf.    Dual Inf.      Time
       0    2.3216797e+01   0.000000e+00   1.119880e+05     43s
    9795   -1.7690745e+02   0.000000e+00   1.687940e+05     45s
   21891   -2.6064678e+02   0.000000e+00   6.416495e+04     50s
   29955   -2.8692629e+02   0.000000e+00   5.470956e+04     55s
   38595   -3.0882132e+02   0.000000e+00   2.608497e+05     60s
   46659   -3.3649700e+02   0.000000e+00   7.886353e+04     65s
   55409   -3.5592823e+02   0.000000e+00   0.000000e+00     70s
   55409   -3.5592823e+02   0.000000e+00   0.000000e+00     72s

Root relaxation: objective -3.559282e+02, 55409 iterations, 35.90 seconds
Total elapsed time = 121.91s
Total elapsed time = 151.29s
Total elapsed time = 170.22s
Total elapsed time = 201.94s

    Nodes    |    Current Node    |     Objective Bounds      |     Work
 Expl Unexpl |  Obj  Depth IntInf | Incumbent    BestBd   Gap | It/Node Time

     0     0 -355.92823    0 1237 -17061.742 -355.92823  97.9%     -  217s
H    0     0                    -1084.990954 -355.92823  67.2%     -  235s
H    0     0                    -532.9342359 -355.92823  33.2%     -  237s
H    0     0                    -448.0708147 -355.92823  20.6%     -  238s
     0     0 -360.32405    0 1191 -448.07081 -360.32405  19.6%     -  258s
     0     0 -366.47820    0 1183 -448.07081 -366.47820  18.2%     -  341s
     0     0 -368.82263    0 1176 -448.07081 -368.82263  17.7%     -  428s
H    0     0                    -444.5541608 -368.82263  17.0%     -  440s
     0     0 -368.93985    0 1153 -444.55416 -368.93985  17.0%     -  451s
     0     0 -370.58096    0 1138 -444.55416 -370.58096  16.6%     -  502s
     0     0 -371.02054    0 1148 -444.55416 -371.02054  16.5%     -  529s
     0     0 -371.02054    0 1152 -444.55416 -371.02054  16.5%     -  538s
     0     0 -372.04623    0 1085 -444.55416 -372.04623  16.3%     -  572s
     0     0 -372.63234    0 1073 -444.55416 -372.63234  16.2%     -  590s
     0     0 -372.63234    0 1065 -444.55416 -372.63234  16.2%     -  599s
     0     0 -373.85441    0 1355 -444.55416 -373.85441  15.9%     -  641s
     0     0 -373.97034    0 1324 -444.55416 -373.97034  15.9%     -  693s
     0     0 -373.97034    0 1325 -444.55416 -373.97034  15.9%     -  701s
     0     0 -375.47748    0 1347 -444.55416 -375.47748  15.5%     -  746s
     0     0 -376.30780    0 1356 -444.55416 -376.30780  15.4%     -  797s
     0     0 -376.30780    0 1356 -444.55416 -376.30780  15.4%     -  806s
     0     0 -379.43372    0 1302 -444.55416 -379.43372  14.6%     -  862s
     0     0 -379.83869    0 1268 -444.55416 -379.83869  14.6%     -  912s
     0     0 -379.83869    0 1265 -444.55416 -379.83869  14.6%     -  922s
     0     0 -381.22407    0 1305 -444.55416 -381.22407  14.2%     - 1039s
H    0     0                    -442.7958338 -381.22407  13.9%     - 1059s
     0     0 -381.59702    0 1354 -442.79583 -381.59702  13.8%     - 1123s
     0     0 -381.72645    0 1361 -442.79583 -381.72645  13.8%     - 1152s
     0     0 -381.74633    0 1316 -442.79583 -381.74633  13.8%     - 1167s
     0     0 -381.74794    0 1364 -442.79583 -381.74794  13.8%     - 1177s
     0     0 -382.33405    0 1409 -442.79583 -382.33405  13.7%     - 1207s
     0     0 -382.39764    0 1370 -442.79583 -382.39764  13.6%     - 1246s
     0     0 -382.47090    0 1369 -442.79583 -382.47090  13.6%     - 1258s
     0     0 -382.47090    0 1373 -442.79583 -382.47090  13.6%     - 1267s
     0     0 -384.94063    0 1062 -442.79583 -384.94063  13.1%     - 1388s
     0     0 -385.08716    0 1091 -442.79583 -385.08716  13.0%     - 1416s
     0     0 -385.12902    0 1096 -442.79583 -385.12902  13.0%     - 1428s
     0     0 -385.28767    0 1090 -442.79583 -385.28767  13.0%     - 1445s
     0     0 -385.28767    0 1066 -442.79583 -385.28767  13.0%     - 1453s
     0     0 -385.91899    0 1377 -442.79583 -385.91899  12.8%     - 1512s
     0     0 -386.10603    0 1380 -442.79583 -386.10603  12.8%     - 1555s
     0     0 -386.13860    0 1377 -442.79583 -386.13860  12.8%     - 1571s
     0     0 -386.13861    0 1424 -442.79583 -386.13861  12.8%     - 1582s
     0     0 -387.61225    0 1393 -442.79583 -387.61225  12.5%     - 1636s
     0     0 -387.88628    0 1411 -442.79583 -387.88628  12.4%     - 1681s
     0     0 -387.92624    0 1415 -442.79583 -387.92624  12.4%     - 1695s
     0     0 -387.92624    0 1415 -442.79583 -387.92624  12.4%     - 1705s
     0     0 -389.65930    0 1474 -442.79583 -389.65930  12.0%     - 1810s
     0     0 -389.77408    0 1476 -442.79583 -389.77408  12.0%     - 1875s
     0     0 -389.82731    0 1213 -442.79583 -389.82731  12.0%     - 1894s
     0     0 -389.86705    0 1420 -442.79583 -389.86705  12.0%     - 1912s
     0     0 -389.86705    0 1480 -442.79583 -389.86705  12.0%     - 1925s
     0     0 -391.65995    0 1195 -442.79583 -391.65995  11.5%     - 2035s
     0     0 -392.30945    0 1422 -442.79583 -392.30945  11.4%     - 2122s
     0     0 -392.36603    0 1475 -442.79583 -392.36603  11.4%     - 2141s
     0     0 -392.68550    0 1481 -442.79583 -392.68550  11.3%     - 2194s
     0     0 -392.69772    0 1471 -442.79583 -392.69772  11.3%     - 2210s
     0     0 -392.69772    0 1473 -442.79583 -392.69772  11.3%     - 2220s
     0     0 -394.41818    0 1429 -442.79583 -394.41818  10.9%     - 2366s
     0     0 -395.16014    0 1436 -442.79583 -395.16014  10.8%     - 2551s
     0     0 -395.16014    0 1440 -442.79583 -395.16014  10.8%     - 2566s
     0     0 -396.26300    0 1401 -442.79583 -396.26300  10.5%     - 2776s
     0     0 -396.34296    0 1423 -442.79583 -396.34296  10.5%     - 2832s
     0     0 -396.36295    0 1431 -442.79583 -396.36295  10.5%     - 2847s
     0     0 -396.37204    0 1438 -442.79583 -396.37204  10.5%     - 2858s
     0     0 -396.37204    0 1439 -442.79583 -396.37204  10.5%     - 2870s
     0     0 -397.15542    0 1324 -442.79583 -397.15542  10.3%     - 2977s
     0     0 -397.28869    0 1479 -442.79583 -397.28869  10.3%     - 3061s
     0     0 -397.28869    0 1406 -442.79583 -397.28869  10.3%     - 3082s
     0     0 -397.68850    0 1140 -442.79583 -397.68850  10.2%     - 3164s
     0     0 -397.68850    0 1132 -442.79583 -397.68850  10.2%     - 3190s
     0     0 -397.68863    0 1116 -442.79583 -397.68863  10.2%     - 3222s
     0     0 -398.16383    0 1377 -442.79583 -398.16383  10.1%     - 3412s
     0     0 -398.29003    0 1145 -442.79583 -398.29003  10.1%     - 3489s
     0     0 -398.29010    0 1228 -442.79583 -398.29010  10.1%     - 3508s
     0     0 -398.68288    0 1299 -442.79583 -398.68288  10.0%     - 4115s
     0     0 -399.24695    0 1407 -442.79583 -399.24695  9.83%     - 4216s
     0     0 -399.36774    0 1296 -442.79583 -399.36774  9.81%     - 4252s
     0     0 -399.37503    0 1413 -442.79583 -399.37503  9.81%     - 4270s
     0     0 -399.37504    0 1432 -442.79583 -399.37504  9.81%     - 4285s
     0     0 -400.71633    0 1390 -442.79583 -400.71633  9.50%     - 4504s
     0     0 -401.03172    0 1477 -442.79583 -401.03172  9.43%     - 4639s
     0     0 -401.06553    0 1485 -442.79583 -401.06553  9.42%     - 4673s
     0     0 -401.06553    0 1432 -442.79583 -401.06553  9.42%     - 4686s
     0     0 -402.26152    0 1543 -442.79583 -402.26152  9.15%     - 4888s
     0     0 -402.80135    0 1549 -442.79583 -402.80135  9.03%     - 4986s
     0     0 -402.84347    0 1388 -442.79583 -402.84347  9.02%     - 5006s
     0     0 -402.84347    0 1396 -442.79583 -402.84347  9.02%     - 5019s
     0     0 -402.89926    0 1598 -442.79583 -402.89926  9.01%     - 5073s
     0     0 -402.93067    0 1426 -442.79583 -402.93067  9.00%     - 5159s
     0     0 -402.99807    0 1615 -442.79583 -402.99807  8.99%     - 5184s
     0     0 -403.07873    0 1574 -442.79583 -403.07873  8.97%     - 5209s
     0     0 -403.07875    0 1581 -442.79583 -403.07875  8.97%     - 5225s
     0     0 -404.07809    0 1643 -442.79583 -404.07809  8.74%     - 5306s
     0     0 -404.08139    0 1649 -442.79583 -404.08139  8.74%     - 5370s
     0     0 -405.38773    0 1051 -442.79583 -405.38773  8.45%     - 5551s
     0     0 -405.45088    0 1693 -442.79583 -405.45088  8.43%     - 5616s
     0     0 -405.61626    0 1432 -442.79583 -405.61626  8.40%     - 5685s
     0     0 -405.61626    0 1433 -442.79583 -405.61626  8.40%     - 5698s
     0     0 -406.88311    0 1349 -442.79583 -406.88311  8.11%     - 5905s
     0     0 -406.88317    0 1423 -442.79583 -406.88317  8.11%     - 5929s
     0     0 -407.25182    0 1590 -442.79583 -407.25182  8.03%     - 6083s
     0     0 -407.40366    0 1234 -442.79583 -407.40366  7.99%     - 6269s
     0     0 -407.40373    0  945 -442.79583 -407.40373  7.99%     - 6299s
     0     0 -407.40373    0 1113 -442.79583 -407.40373  7.99%     - 6335s
     0     0 -407.57953    0 1511 -442.79583 -407.57953  7.95%     - 6446s
     0     0 -407.57953    0 1553 -442.79583 -407.57953  7.95%     - 6466s
     0     0 -407.99097    0 1542 -442.79583 -407.99097  7.86%     - 6591s
     0     0 -408.50344    0 1573 -442.79583 -408.50344  7.74%     - 6806s
     0     0 -408.53108    0 1563 -442.79583 -408.53108  7.74%     - 6848s
     0     0 -408.61047    0 1506 -442.79583 -408.61047  7.72%     - 6888s
     0     0 -408.62521    0 1565 -442.79583 -408.62521  7.72%     - 6915s
     0     0 -408.62526    0 1625 -442.79583 -408.62526  7.72%     - 6927s
     0     0 -408.91275    0 1502 -442.79583 -408.91275  7.65%     - 6991s
     0     0 -409.00415    0 1389 -442.79583 -409.00415  7.63%     - 7078s
     0     0 -409.00415    0 1394 -442.79583 -409.00415  7.63%     - 7090s
     0     0 -409.70748    0 1399 -442.79583 -409.70748  7.47%     - 7191s
     0     0 -409.71769    0 1403 -442.79583 -409.71769  7.47%     - 7232s
     0     0 -409.71769    0 1402 -442.79583 -409.71769  7.47%     - 7241s
     0     0 -410.50714    0 1508 -442.79583 -410.50714  7.29%     - 7354s
     0     0 -410.85715    0 1519 -442.79583 -410.85715  7.21%     - 7507s
     0     0 -410.87558    0 1528 -442.79583 -410.87558  7.21%     - 7555s
     0     0 -410.92018    0 1403 -442.79583 -410.92018  7.20%     - 7582s
     0     0 -410.92018    0 1404 -442.79583 -410.92018  7.20%     - 7592s
     0     0 -410.92393    0 1272 -442.79583 -410.92393  7.20%     - 7623s
     0     0 -410.92393    0 1273 -442.79583 -410.92393  7.20%     - 7642s
     0     0 -411.61574    0 1278 -442.79583 -411.61574  7.04%     - 7797s
     0     0 -411.61574    0 1209 -442.79583 -411.61574  7.04%     - 7833s
     0     0 -411.61574    0 1210 -442.79583 -411.61574  7.04%     - 7851s
     0     0 -412.13598    0 1396 -442.79583 -412.13598  6.92%     - 8590s
     0     0 -412.13598    0 1413 -442.79583 -412.13598  6.92%     - 8633s
     0     0 -412.40321    0 1442 -442.79583 -412.40321  6.86%     - 8792s
     0     0 -412.44205    0 1327 -442.79583 -412.44205  6.86%     - 8882s
     0     0 -412.52737    0 1391 -442.79583 -412.52737  6.84%     - 8973s
     0     0 -412.53974    0 1331 -442.79583 -412.53974  6.83%     - 8993s
     0     0 -412.53974    0 1337 -442.79583 -412.53974  6.83%     - 9004s
     0     0 -412.53974    0 1359 -442.79583 -412.53974  6.83%     - 9029s
     0     0 -412.53974    0 1357 -442.79583 -412.53974  6.83%     - 9061s
     0     0 -412.53974    0 1364 -442.79583 -412.53974  6.83%     - 9086s
     0     0 -412.53974    0 1310 -442.79583 -412.53974  6.83%     - 9351s
     0     2 -412.53983    0 1309 -442.79583 -412.53983  6.83%     - 9807s
     1     3 -412.53983    1 1323 -442.79583 -412.53983  6.83%  2681 9812s
     2     4 -412.53983    2 1314 -442.79583 -412.53983  6.83%  1424 9816s
     4     6 -412.68226    4 1242 -442.79583 -412.53983  6.83%   867 9825s
     5     7 -415.11677    5 1269 -442.79583 -412.53983  6.83%  2332 9896s
     6     8 -417.36410    6 1265 -442.79583 -412.53983  6.83%  2440 9935s
     7     9 -422.19060    6 1117 -442.79583 -412.53983  6.83%  3090 9996s
     8    10 -417.90819    7 1617 -442.79583 -412.53983  6.83%  2934 10031s
     9    11 -422.34960    8 1188 -442.79583 -412.53983  6.83%  2770 10052s
    10    12 -422.88518    8 1675 -442.79583 -412.53983  6.83%  3026 10105s
    11    13 -427.96272    9 1192 -442.79583 -412.53983  6.83%  3062 10132s
    12    14 -432.02040   10 1166 -442.79583 -412.53983  6.83%  2883 10151s
    13    13     cutoff   10      -442.79583 -412.53983  6.83%  2766 10163s
    14    12     cutoff   11      -442.79583 -412.53983  6.83%  2842 10185s
    15    11     cutoff   11      -442.79583 -412.53983  6.83%  2689 10190s
    16    12 -413.34129    2 1388 -442.79583 -412.54507  6.83%  2792 10228s
    17    13 -417.70178    3 1242 -442.79583 -412.54507  6.83%  3718 10610s
    18    14 -418.24314    4 1218 -442.79583 -412.54507  6.83%  3655 10647s
    19    15 -418.24323    5 1213 -442.79583 -412.54507  6.83%  3471 10654s
    20    16 -418.88219    6 1223 -442.79583 -412.54507  6.83%  3612 10745s
    21    17 -419.20839    7 1603 -442.79583 -412.54507  6.83%  3591 10779s
    22    18 -423.58025    8 1207 -442.79583 -412.54507  6.83%  4590 11308s
    23    17     cutoff    9      -442.79583 -412.54507  6.83%  4616 11400s
    24    18 -439.40519    9 1164 -442.79583 -412.54507  6.83%  6759 12911s
    25    19 -440.12108   10 1149 -442.79583 -412.54507  6.83%  6596 12950s
    26    18     cutoff   10      -442.79583 -412.54507  6.83%  9285 15362s
    27    19 -440.81185   11 1086 -442.79583 -412.54507  6.83%  9037 15417s
    28    18     cutoff   11      -442.79583 -412.54507  6.83%  8745 15424s
    29    19 -441.69102   12 1088 -442.79583 -412.54507  6.83%  8474 15435s
    30    18     cutoff   13      -442.79583 -412.54507  6.83%  8444 15563s
    31    17     cutoff   13      -442.79583 -412.54507  6.83%  8448 15688s
    32    16     cutoff   12      -442.79583 -412.54507  6.83%  8209 15695s
    33    17 -416.83023    1 1413 -442.79583 -412.54667  6.83%  9273 16562s
    34    18 -425.94488    2 1229 -442.79583 -412.54667  6.83% 11290 18448s
    35    19 -418.48299    2 1292 -442.79583 -412.54667  6.83% 11559 18924s
    36    20 -428.66229    3 1182 -442.79583 -412.54667  6.83% 11500 19136s
    37    21 -432.76505    4 1155 -442.79583 -412.54667  6.83% 11525 19388s
    38    22 -436.86782    5 1130 -442.79583 -412.54667  6.83% 11533 19646s
    39    23 -439.79836    6 1120 -442.79583 -412.54667  6.83% 11314 19690s
    40    22     cutoff    7      -442.79583 -412.54667  6.83% 11094 19718s
    41    21     cutoff    7      -442.79583 -412.54667  6.83% 13057 22525s
    42    20     cutoff    5      -442.79583 -412.54667  6.83% 15421 26428s
    43    19     cutoff    6      -442.79583 -412.54667  6.83% 17401 29746s
    44    20 -418.03337    4 1084 -442.79583 -412.54796  6.83% 17914 30711s
    45    21 -427.63714    5 1218 -442.79583 -412.54796  6.83% 17709 30964s
    46    22 -420.82796    5 1242 -442.79583 -412.54796  6.83% 18305 32334s
    47    23 -431.59338    6 1164 -442.79583 -412.54796  6.83% 18051 32448s
    48    24 -435.69614    7 1140 -442.79583 -412.54796  6.83% 17820 32612s
    49    25 -438.62668    8 1119 -442.79583 -412.54796  6.83% 17557 32701s
    50    26 -440.97112    9 1113 -442.79583 -412.54796  6.83% 17228 32719s
    51    25     cutoff    7      -442.79583 -412.54796  6.83% 18373 35004s
    52    24     cutoff   10      -442.79583 -412.54796  6.83% 18034 35012s
    53    23     cutoff    8      -442.79583 -412.54796  6.83% 19022 36856s
    54    22     cutoff    9      -442.79583 -412.54796  6.83% 19481 37934s
    55    21     cutoff   10      -442.79583 -412.54796  6.83% 19134 37938s
    56    22 -415.95716    3 1433 -442.79583 -412.68473  6.80% 19326 38660s
    57    23 -419.06937    4 1310 -442.79583 -412.68473  6.80% 19486 39144s
    58    24 -426.43535    4 1223 -442.79583 -412.68473  6.80% 20432 40946s
    59    25 -429.24867    5 1175 -442.79583 -412.68473  6.80% 20142 40988s
    60    26 -432.76532    6 1154 -442.79583 -412.68473  6.80% 19833 41011s
    61    27 -436.28198    7 1147 -442.79583 -412.68473  6.80% 19540 41036s
    62    28 -438.04030    8 1142 -442.79583 -412.68473  6.80% 19240 41047s
    63    27     cutoff    8      -442.79583 -412.68473  6.80% 20723 44764s
    64    28 -440.38474    9 1064 -442.79583 -412.68473  6.80% 20440 44813s
    65    27     cutoff   10      -442.79583 -412.68473  6.80% 20158 44834s
    66    26     cutoff   10      -442.79583 -412.68473  6.80% 19857 44836s
    67    25     cutoff    9      -442.79583 -412.68473  6.80% 20865 47450s
    68    26 -414.35928    5 1221 -442.79583 -413.34158  6.65% 20889 47903s
    69    27 -417.18440    6 1379 -442.79583 -413.34158  6.65% 21284 49170s
    70    28 -420.07408    7 1790 -442.79583 -413.34158  6.65% 22093 51466s
    71    29 -425.70839    7 1229 -442.79583 -413.34158  6.65% 23103 54129s
    72    30 -415.00159    6 1680 -442.79583 -413.34158  6.65% 23112 54742s
    73    29     cutoff    8      -442.79583 -413.34158  6.65% 23987 57093s
    74    30 -441.84983    8 1106 -442.79583 -413.34158  6.65% 25110 59829s
    75    29     cutoff    9      -442.79583 -413.34158  6.65% 24808 59855s
    76    28     cutoff    9      -442.79583 -413.34158  6.65% 25027 60813s
    77    29 -425.80710    8 1217 -442.79583 -413.34158  6.65% 25690 62940s
    78    30 -429.99359    9 1167 -442.79583 -413.34158  6.65% 25925 64181s
    79    31 -433.51025   10 1166 -442.79583 -413.34158  6.65% 25796 64471s
    80    32 -437.61301   11 1137 -442.79583 -413.34158  6.65% 25865 65174s
    81    31     cutoff   12      -442.79583 -413.34158  6.65% 26161 66305s
    82    30     cutoff   12      -442.79583 -413.34158  6.65% 26744 68167s
    83    29     cutoff   10      -442.79583 -413.34158  6.65% 28800 76147s
    84    28     cutoff   11      -442.79583 -413.34158  6.65% 30047 81085s
    85    29 -423.52284    3 1243 -442.79583 -415.01125  6.27% 30121 81732s
    86    30 -427.49034    4 1188 -442.79583 -415.01125  6.27% 30019 82111s
    87    31 -431.47588    5 1180 -442.79583 -415.01125  6.27% 29804 82301s
    88    32 -433.93754    6 1153 -442.79583 -415.01125  6.27% 29608 82563s
    89    33 -436.28198    7 1138 -442.79583 -415.01125  6.27% 29335 82644s
    90    34 -439.79863    8 1123 -442.79583 -415.01125  6.27% 29063 82752s
    91    33     cutoff    9      -442.79583 -415.01125  6.27% 28850 82892s
    92    32     cutoff    9      -442.79583 -415.01125  6.27% 29047 83931s
    93    31     cutoff    8      -442.79583 -415.01125  6.27% 29409 85574s

Cutting planes:
  Gomory: 1
  Zero half: 1125

Explored 94 nodes (3108403 simplex iterations) in 86400.88 seconds
Thread count was 1 (of 80 available processors)

Solution count 6: -442.796 -444.554 -448.071 ... -17061.7

Time limit reached
Best objective -4.427958338086e+02, best bound -4.150112519581e+02, gap 6.2748%
